NAME : X-n110-80-k11
COMMENT : "Generated by Queiroga, Frota, Sadykov, Subramanian, Uchoa and Vidal (2019)" 
TYPE : CVRP
DIMENSION : 110
EDGE_WEIGHT_TYPE : EUC_2D
CAPACITY : 66
NODE_COORD_SECTION
1 -1 500 500
2 0 740 442
3 0 261 710
4 0 578 522
5 0 482 914
6 0 628 644
7 0 551 651
8 0 828 54
9 0 541 270
10 0 450 1000
11 0 521 127
12 0 738 809
13 0 323 289
14 0 803 214
15 0 556 488
16 0 758 937
17 0 875 326
18 0 113 509
19 0 491 726
20 0 415 355
21 0 946 632
22 0 136 120
23 0 117 971
24 0 817 246
25 0 491 845
26 0 454 801
27 0 676 995
28 0 145 557
29 0 166 494
30 0 977 318
31 0 363 711
32 0 164 501
33 0 833 501
34 0 444 958
35 0 828 672
36 0 714 57
37 0 51 676
38 0 922 16
39 0 673 571
40 0 211 471
41 0 590 220
42 0 305 311
43 0 953 745
44 0 154 753
45 0 918 227
46 0 819 671
47 0 675 667
48 0 617 176
49 0 706 179
50 0 512 443
51 0 302 453
52 0 753 786
53 0 331 450
54 0 765 990
55 0 249 360
56 0 292 887
57 0 371 804
58 0 786 186
59 0 382 284
60 0 44 552
61 0 107 895
62 0 108 928
63 0 523 264
64 0 397 120
65 0 25 769
66 0 98 623
67 0 946 978
68 0 815 696
69 0 314 361
70 0 447 695
71 0 878 243
72 0 341 648
73 0 363 0
74 0 675 83
75 0 998 520
76 0 98 111
77 0 267 902
78 0 628 746
79 0 940 409
80 0 786 488
81 0 323 674
82 0 986 151
83 0 790 150
84 0 180 944
85 0 533 816
86 0 750 789
87 0 589 125
88 0 640 911
89 0 99 216
90 1 754 659
91 1 828 357
92 1 597 587
93 1 929 655
94 1 159 781
95 1 955 6
96 1 63 435
97 1 130 302
98 1 954 687
99 1 866 879
100 1 131 686
101 1 519 220
102 1 454 928
103 1 415 916
104 1 468 833
105 1 109 859
106 1 806 568
107 1 907 703
108 1 821 135
109 1 622 561
110 1 482 689
DEMAND_SECTION
1 0
2 8
3 10
4 8
5 5
6 10
7 5
8 9
9 10
10 6
11 5
12 10
13 5
14 9
15 10
16 7
17 9
18 7
19 8
20 5
21 8
22 10
23 6
24 8
25 7
26 6
27 7
28 5
29 10
30 10
31 5
32 7
33 5
34 10
35 6
36 7
37 9
38 7
39 7
40 6
41 7
42 10
43 8
44 10
45 6
46 10
47 8
48 6
49 10
50 8
51 10
52 10
53 6
54 5
55 5
56 10
57 5
58 10
59 8
60 8
61 5
62 6
63 7
64 8
65 9
66 10
67 8
68 5
69 6
70 10
71 8
72 5
73 10
74 9
75 7
76 6
77 7
78 7
79 6
80 9
81 6
82 10
83 9
84 10
85 5
86 5
87 7
88 8
89 10
90 10
91 10
92 8
93 9
94 6
95 6
96 5
97 6
98 8
99 5
100 9
101 5
102 5
103 6
104 6
105 5
106 5
107 7
108 7
109 9
110 9
DEPOT_SECTION
1
-1
EOF
